NAME: tsp_453
COMMENT: Random TSP instance
TYPE: TSP
DIMENSION: 50
EDGE_WEIGHT_TYPE: EUC_2D
NODE_COORD_SECTION
1 438 705
2 144 995
3 784 836
4 46 120
5 389 241
6 766 573
7 214 697
8 116 100
9 172 892
10 182 740
11 219 292
12 933 876
13 66 884
14 17 768
15 826 279
16 817 335
17 600 100
18 850 316
19 927 733
20 575 845
21 238 353
22 814 811
23 753 303
24 947 145
25 814 841
26 992 382
27 141 89
28 528 952
29 296 806
30 278 0
31 159 554
32 888 645
33 173 691
34 122 253
35 920 39
36 357 481
37 881 633
38 13 721
39 818 529
40 217 238
41 488 182
42 357 657
43 427 119
44 106 536
45 473 524
46 260 775
47 13 385
48 820 121
49 662 723
50 617 993
